(set-logic ALL)
(set-option :produce-models true)
(declare-sort BoundSet 0)
(declare-sort UnboundSet 0)
(set-option :finite-model-find true)
(declare-fun IsCurrent (BoundSet) Bool)
(declare-fun WillContinue (BoundSet) Bool)
(declare-fun WillNotContinue (BoundSet) Bool)
(assert (not (=> (exists ((b BoundSet)) (and (not (IsCurrent b)) (WillContinue b))) (exists ((a BoundSet)) (WillNotContinue a)))))
(check-sat)
(get-model)